Route #1: 15 32 89 17 66 106 73 87 86 60 48 108 19 51 25 2
Route #2: 52 21 82 88 9 78 53 29 50
Route #3: 34 63 7 1 74 85 64
Route #4: 3 93 18 109 47 79 49 99 35 107 95 59 42 10
Route #5: 28 100 57 92 4 101 20 94 62 54 114 30 44 27 105
Route #6: 111 110 112 84 75 83 8 14 68 43 40 67 39 90 37 98 72 26 46
Route #7: 104 41 91 23 65 22 96 45 12 113 58 77 38 97 80 55 76 71 24 102 69
Route #8: 16 5 6
Route #9: 13 70 103 61 33 81 11 31 56 36
Cost 12211.000000